4695
4725
4677
4695
4615
4711
4661
4741
4664
4645
4630
4621
4623
4652
4591
4685
4632
4695
4730
4673
4678
4645
4692
4655
4650
4659
4695
4734
4690
4686
4620
4679
4702
4737
4680
4632
4653
4623
4616
4709
4719
4643
4630
4649
4751
4631
4596
4647
4676
4653
4648
4640
4703
4571
4585
4538
4624
4682
4662
4705
4649
4643
4684
4739
4672
4613
4600
4753
4682
4676
4701
4619
4606
4675
4639
4636
4667
4693
4619
4747
4637
4707
4659
4622
4676
4576
4647
4693
4740
4648
4671
4709
4687
4655
4547
4668
4648
4686
4666
4670
